39828 38790 
39218 39247 
38531 39683 
38596 39642 
38435 39687 
39325 39163 
38137 39838 
38057 39885 
38820 39504 
37817 40011 
38122 39844 
38310 39756 
39073 39321 
39935 38706 
37429 40202 
36824 40251 
36744 40298 
37627 40045 
36655 40360 
39683 38864 
36331 40390 
37069 40225 
36052 40485 
36871 40231 
36190 40438 
36809 40257 
